p tw 152 172
1 2
2 65
3 14
4 5
5 13
6 7
7 8
8 9
9 13
10 11
11 12
12 13
13 15
14 25
15 16
16 17
16 24
17 18
18 19
19 20
20 21
21 22
21 131
22 23
23 24
24 26
25 36
26 27
27 28
28 29
28 129
29 30
30 31
31 32
32 33
33 34
34 35
35 37
36 47
37 38
38 39
39 40
40 41
41 42
41 131
42 43
43 44
44 45
45 46
46 48
47 58
48 49
49 50
50 51
51 52
52 53
53 54
54 55
54 131
55 56
56 57
57 59
58 61
59 60
61 62
61 63
62 59
63 64
64 66
65 76
66 67
67 68
68 69
69 70
70 71
71 72
71 82
72 73
73 74
74 75
75 77
76 87
77 78
78 79
79 80
80 81
81 115
82 83
83 84
84 85
85 86
86 88
87 98
88 89
89 90
90 91
91 92
92 93
93 94
94 95
94 96
95 59
96 97
97 99
98 109
99 100
100 101
101 102
102 103
103 104
103 85
104 105
105 106
106 107
107 108
108 110
109 120
110 111
111 112
112 113
113 114
114 131
115 116
116 117
117 118
118 119
118 131
119 121
120 131
121 122
121 131
122 123
123 124
123 131
124 125
125 126
125 131
126 127
127 128
128 129
129 130
130 132
131 142
132 133
132 13
133 134
134 135
134 13
135 136
135 140
135 145
135 148
135 151
135 6
135 10
136 137
137 138
138 139
139 13
140 141
141 143
142 3
143 144
144 13
145 146
146 147
147 13
148 149
149 150
150 13
151 152
152 4
